\Problem name: 

Minimize
obj: Y
Subject To
Escolhe_Oponente_0:  X(0,1) + X(0,2) + X(0,3) + X(0,4) + X(0,5) + X(0,6) + X(0,7) + X(0,8) + X(0,9) + X(0,10)
 + X(0,11) + X(0,12) + X(0,13) + X(0,14) + X(0,15) + X(0,16) + X(0,17) = 1
Escolhe_Oponente_1:  X(0,1) + X(1,2) + X(1,3) + X(1,4) + X(1,5) + X(1,6) + X(1,7) + X(1,8) + X(1,9) + X(1,10)
 + X(1,11) + X(1,12) + X(1,13) + X(1,14) + X(1,15) + X(1,16) + X(1,17) = 1
Escolhe_Oponente_2:  X(0,2) + X(1,2) + X(2,3) + X(2,4) + X(2,5) + X(2,6) + X(2,7) + X(2,8) + X(2,9) + X(2,10)
 + X(2,11) + X(2,12) + X(2,13) + X(2,14) + X(2,15) + X(2,16) + X(2,17) = 1
Escolhe_Oponente_3:  X(0,3) + X(1,3) + X(2,3) + X(3,4) + X(3,5) + X(3,6) + X(3,7) + X(3,8) + X(3,9) + X(3,10)
 + X(3,11) + X(3,12) + X(3,13) + X(3,14) + X(3,15) + X(3,16) + X(3,17) = 1
Escolhe_Oponente_4:  X(0,4) + X(1,4) + X(2,4) + X(3,4) + X(4,5) + X(4,6) + X(4,7) + X(4,8) + X(4,9) + X(4,10)
 + X(4,11) + X(4,12) + X(4,13) + X(4,14) + X(4,15) + X(4,16) + X(4,17) = 1
Escolhe_Oponente_5:  X(0,5) + X(1,5) + X(2,5) + X(3,5) + X(4,5) + X(5,6) + X(5,7) + X(5,8) + X(5,9) + X(5,10)
 + X(5,11) + X(5,12) + X(5,13) + X(5,14) + X(5,15) + X(5,16) + X(5,17) = 1
Escolhe_Oponente_6:  X(0,6) + X(1,6) + X(2,6) + X(3,6) + X(4,6) + X(5,6) + X(6,7) + X(6,8) + X(6,9) + X(6,10)
 + X(6,11) + X(6,12) + X(6,13) + X(6,14) + X(6,15) + X(6,16) + X(6,17) = 1
Escolhe_Oponente_7:  X(0,7) + X(1,7) + X(2,7) + X(3,7) + X(4,7) + X(5,7) + X(6,7) + X(7,8) + X(7,9) + X(7,10)
 + X(7,11) + X(7,12) + X(7,13) + X(7,14) + X(7,15) + X(7,16) + X(7,17) = 1
Escolhe_Oponente_8:  X(0,8) + X(1,8) + X(2,8) + X(3,8) + X(4,8) + X(5,8) + X(6,8) + X(7,8) + X(8,9) + X(8,10)
 + X(8,11) + X(8,12) + X(8,13) + X(8,14) + X(8,15) + X(8,16) + X(8,17) = 1
Escolhe_Oponente_9:  X(0,9) + X(1,9) + X(2,9) + X(3,9) + X(4,9) + X(5,9) + X(6,9) + X(7,9) + X(8,9) + X(9,10)
 + X(9,11) + X(9,12) + X(9,13) + X(9,14) + X(9,15) + X(9,16) + X(9,17) = 1
Escolhe_Oponente_10:  X(0,10) + X(1,10) + X(2,10) + X(3,10) + X(4,10) + X(5,10) + X(6,10) + X(7,10) + X(8,10) + X(9,10)
 + X(10,11) + X(10,12) + X(10,13) + X(10,14) + X(10,15) + X(10,16) + X(10,17) = 1
Escolhe_Oponente_11:  X(0,11) + X(1,11) + X(2,11) + X(3,11) + X(4,11) + X(5,11) + X(6,11) + X(7,11) + X(8,11) + X(9,11)
 + X(10,11) + X(11,12) + X(11,13) + X(11,14) + X(11,15) + X(11,16) + X(11,17) = 1
Escolhe_Oponente_12:  X(0,12) + X(1,12) + X(2,12) + X(3,12) + X(4,12) + X(5,12) + X(6,12) + X(7,12) + X(8,12) + X(9,12)
 + X(10,12) + X(11,12) + X(12,13) + X(12,14) + X(12,15) + X(12,16) + X(12,17) = 1
Escolhe_Oponente_13:  X(0,13) + X(1,13) + X(2,13) + X(3,13) + X(4,13) + X(5,13) + X(6,13) + X(7,13) + X(8,13) + X(9,13)
 + X(10,13) + X(11,13) + X(12,13) + X(13,14) + X(13,15) + X(13,16) + X(13,17) = 1
Escolhe_Oponente_14:  X(0,14) + X(1,14) + X(2,14) + X(3,14) + X(4,14) + X(5,14) + X(6,14) + X(7,14) + X(8,14) + X(9,14)
 + X(10,14) + X(11,14) + X(12,14) + X(13,14) + X(14,15) + X(14,16) + X(14,17) = 1
Escolhe_Oponente_15:  X(0,15) + X(1,15) + X(2,15) + X(3,15) + X(4,15) + X(5,15) + X(6,15) + X(7,15) + X(8,15) + X(9,15)
 + X(10,15) + X(11,15) + X(12,15) + X(13,15) + X(14,15) + X(15,16) + X(15,17) = 1
Escolhe_Oponente_16:  X(0,16) + X(1,16) + X(2,16) + X(3,16) + X(4,16) + X(5,16) + X(6,16) + X(7,16) + X(8,16) + X(9,16)
 + X(10,16) + X(11,16) + X(12,16) + X(13,16) + X(14,16) + X(15,16) + X(16,17) = 1
Escolhe_Oponente_17:  X(0,17) + X(1,17) + X(2,17) + X(3,17) + X(4,17) + X(5,17) + X(6,17) + X(7,17) + X(8,17) + X(9,17)
 + X(10,17) + X(11,17) + X(12,17) + X(13,17) + X(14,17) + X(15,17) + X(16,17) = 1
Balanceamento_0_0:  - Y <= 0
Balanceamento_0_1:  - Y + 2300 X(0,1) <= 0
Balanceamento_0_2:  - Y + 300 X(0,2) <= 0
Balanceamento_0_3:  - Y + 400 X(0,3) <= 0
Balanceamento_0_4:  - Y + 300 X(0,4) <= 0
Balanceamento_0_5:  - Y + 800 X(0,5) <= 0
Balanceamento_0_6:  - Y + 1300 X(0,6) <= 0
Balanceamento_0_7:  - Y <= 0
Balanceamento_0_8:  - Y + 2900 X(0,8) <= 0
Balanceamento_0_9:  - Y <= 0
Balanceamento_0_10:  - Y + 900 X(0,10) <= 0
Balanceamento_0_11:  - Y <= 0
Balanceamento_0_12:  - Y <= 0
Balanceamento_0_13:  - Y + 3100 X(0,13) <= 0
Balanceamento_0_14:  - Y <= 0
Balanceamento_0_15:  - Y + 1900 X(0,15) <= 0
Balanceamento_0_16:  - Y + 1000 X(0,16) <= 0
Balanceamento_0_17:  - Y + 600 X(0,17) <= 0
Balanceamento_1_0:  - Y <= 0
Balanceamento_1_1:  - Y <= 0
Balanceamento_1_2:  - Y <= 0
Balanceamento_1_3:  - Y <= 0
Balanceamento_1_4:  - Y <= 0
Balanceamento_1_5:  - Y <= 0
Balanceamento_1_6:  - Y <= 0
Balanceamento_1_7:  - Y <= 0
Balanceamento_1_8:  - Y + 850 X(1,8) <= 0
Balanceamento_1_9:  - Y <= 0
Balanceamento_1_10:  - Y <= 0
Balanceamento_1_11:  - Y <= 0
Balanceamento_1_12:  - Y <= 0
Balanceamento_1_13:  - Y + 1150 X(1,13) <= 0
Balanceamento_1_14:  - Y <= 0
Balanceamento_1_15:  - Y <= 0
Balanceamento_1_16:  - Y <= 0
Balanceamento_1_17:  - Y <= 0
Balanceamento_2_0:  - Y <= 0
Balanceamento_2_1:  - Y <= 0
Balanceamento_2_2:  - Y <= 0
Balanceamento_2_3:  - Y + 100 X(2,3) <= 0
Balanceamento_2_4:  - Y <= 0
Balanceamento_2_5:  - Y + 500 X(2,5) <= 0
Balanceamento_2_6:  - Y + 1000 X(2,6) <= 0
Balanceamento_2_7:  - Y <= 0
Balanceamento_2_8:  - Y + 2600 X(2,8) <= 0
Balanceamento_2_9:  - Y <= 0
Balanceamento_2_10:  - Y + 600 X(2,10) <= 0
Balanceamento_2_11:  - Y <= 0
Balanceamento_2_12:  - Y <= 0
Balanceamento_2_13:  - Y + 2800 X(2,13) <= 0
Balanceamento_2_14:  - Y <= 0
Balanceamento_2_15:  - Y + 1600 X(2,15) <= 0
Balanceamento_2_16:  - Y + 700 X(2,16) <= 0
Balanceamento_2_17:  - Y + 300 X(2,17) <= 0
Balanceamento_3_0:  - Y <= 0
Balanceamento_3_1:  - Y <= 0
Balanceamento_3_2:  - Y <= 0
Balanceamento_3_3:  - Y <= 0
Balanceamento_3_4:  - Y <= 0
Balanceamento_3_5:  - Y + 400 X(3,5) <= 0
Balanceamento_3_6:  - Y + 900 X(3,6) <= 0
Balanceamento_3_7:  - Y <= 0
Balanceamento_3_8:  - Y + 2500 X(3,8) <= 0
Balanceamento_3_9:  - Y <= 0
Balanceamento_3_10:  - Y + 500 X(3,10) <= 0
Balanceamento_3_11:  - Y <= 0
Balanceamento_3_12:  - Y <= 0
Balanceamento_3_13:  - Y + 2700 X(3,13) <= 0
Balanceamento_3_14:  - Y <= 0
Balanceamento_3_15:  - Y + 1500 X(3,15) <= 0
Balanceamento_3_16:  - Y + 600 X(3,16) <= 0
Balanceamento_3_17:  - Y + 200 X(3,17) <= 0
Balanceamento_4_0:  - Y <= 0
Balanceamento_4_1:  - Y <= 0
Balanceamento_4_2:  - Y <= 0
Balanceamento_4_3:  - Y <= 0
Balanceamento_4_4:  - Y <= 0
Balanceamento_4_5:  - Y + 500 X(4,5) <= 0
Balanceamento_4_6:  - Y + 1000 X(4,6) <= 0
Balanceamento_4_7:  - Y <= 0
Balanceamento_4_8:  - Y + 2600 X(4,8) <= 0
Balanceamento_4_9:  - Y <= 0
Balanceamento_4_10:  - Y + 600 X(4,10) <= 0
Balanceamento_4_11:  - Y <= 0
Balanceamento_4_12:  - Y <= 0
Balanceamento_4_13:  - Y + 2800 X(4,13) <= 0
Balanceamento_4_14:  - Y <= 0
Balanceamento_4_15:  - Y + 1600 X(4,15) <= 0
Balanceamento_4_16:  - Y + 700 X(4,16) <= 0
Balanceamento_4_17:  - Y + 300 X(4,17) <= 0
Balanceamento_5_0:  - Y <= 0
Balanceamento_5_1:  - Y <= 0
Balanceamento_5_2:  - Y <= 0
Balanceamento_5_3:  - Y <= 0
Balanceamento_5_4:  - Y <= 0
Balanceamento_5_5:  - Y <= 0
Balanceamento_5_6:  - Y + 500 X(5,6) <= 0
Balanceamento_5_7:  - Y <= 0
Balanceamento_5_8:  - Y + 2100 X(5,8) <= 0
Balanceamento_5_9:  - Y <= 0
Balanceamento_5_10:  - Y + 100 X(5,10) <= 0
Balanceamento_5_11:  - Y <= 0
Balanceamento_5_12:  - Y <= 0
Balanceamento_5_13:  - Y + 2300 X(5,13) <= 0
Balanceamento_5_14:  - Y <= 0
Balanceamento_5_15:  - Y + 1100 X(5,15) <= 0
Balanceamento_5_16:  - Y + 200 X(5,16) <= 0
Balanceamento_5_17:  - Y <= 0
Balanceamento_6_0:  - Y <= 0
Balanceamento_6_1:  - Y <= 0
Balanceamento_6_2:  - Y <= 0
Balanceamento_6_3:  - Y <= 0
Balanceamento_6_4:  - Y <= 0
Balanceamento_6_5:  - Y <= 0
Balanceamento_6_6:  - Y <= 0
Balanceamento_6_7:  - Y <= 0
Balanceamento_6_8:  - Y + 1600 X(6,8) <= 0
Balanceamento_6_9:  - Y <= 0
Balanceamento_6_10:  - Y <= 0
Balanceamento_6_11:  - Y <= 0
Balanceamento_6_12:  - Y <= 0
Balanceamento_6_13:  - Y + 1900 X(6,13) <= 0
Balanceamento_6_14:  - Y <= 0
Balanceamento_6_15:  - Y + 600 X(6,15) <= 0
Balanceamento_6_16:  - Y <= 0
Balanceamento_6_17:  - Y <= 0
Balanceamento_7_0:  - Y <= 0
Balanceamento_7_1:  - Y <= 0
Balanceamento_7_2:  - Y <= 0
Balanceamento_7_3:  - Y <= 0
Balanceamento_7_4:  - Y <= 0
Balanceamento_7_5:  - Y <= 0
Balanceamento_7_6:  - Y <= 0
Balanceamento_7_7:  - Y <= 0
Balanceamento_7_8:  - Y + 2900 X(7,8) <= 0
Balanceamento_7_9:  - Y <= 0
Balanceamento_7_10:  - Y + 900 X(7,10) <= 0
Balanceamento_7_11:  - Y <= 0
Balanceamento_7_12:  - Y <= 0
Balanceamento_7_13:  - Y + 3100 X(7,13) <= 0
Balanceamento_7_14:  - Y <= 0
Balanceamento_7_15:  - Y + 1900 X(7,15) <= 0
Balanceamento_7_16:  - Y + 1000 X(7,16) <= 0
Balanceamento_7_17:  - Y + 600 X(7,17) <= 0
Balanceamento_8_0:  - Y <= 0
Balanceamento_8_1:  - Y <= 0
Balanceamento_8_2:  - Y <= 0
Balanceamento_8_3:  - Y <= 0
Balanceamento_8_4:  - Y <= 0
Balanceamento_8_5:  - Y <= 0
Balanceamento_8_6:  - Y <= 0
Balanceamento_8_7:  - Y <= 0
Balanceamento_8_8:  - Y <= 0
Balanceamento_8_9:  - Y <= 0
Balanceamento_8_10:  - Y <= 0
Balanceamento_8_11:  - Y <= 0
Balanceamento_8_12:  - Y <= 0
Balanceamento_8_13:  - Y + 200 X(8,13) <= 0
Balanceamento_8_14:  - Y <= 0
Balanceamento_8_15:  - Y <= 0
Balanceamento_8_16:  - Y <= 0
Balanceamento_8_17:  - Y <= 0
Balanceamento_9_0:  - Y <= 0
Balanceamento_9_1:  - Y <= 0
Balanceamento_9_2:  - Y <= 0
Balanceamento_9_3:  - Y <= 0
Balanceamento_9_4:  - Y <= 0
Balanceamento_9_5:  - Y <= 0
Balanceamento_9_6:  - Y <= 0
Balanceamento_9_7:  - Y <= 0
Balanceamento_9_8:  - Y <= 0
Balanceamento_9_9:  - Y <= 0
Balanceamento_9_10:  - Y + 1100 X(9,10) <= 0
Balanceamento_9_11:  - Y <= 0
Balanceamento_9_12:  - Y <= 0
Balanceamento_9_13:  - Y + 3300 X(9,13) <= 0
Balanceamento_9_14:  - Y <= 0
Balanceamento_9_15:  - Y + 2100 X(9,15) <= 0
Balanceamento_9_16:  - Y + 1200 X(9,16) <= 0
Balanceamento_9_17:  - Y + 800 X(9,17) <= 0
Balanceamento_10_0:  - Y <= 0
Balanceamento_10_1:  - Y <= 0
Balanceamento_10_2:  - Y <= 0
Balanceamento_10_3:  - Y <= 0
Balanceamento_10_4:  - Y <= 0
Balanceamento_10_5:  - Y <= 0
Balanceamento_10_6:  - Y <= 0
Balanceamento_10_7:  - Y <= 0
Balanceamento_10_8:  - Y <= 0
Balanceamento_10_9:  - Y <= 0
Balanceamento_10_10:  - Y <= 0
Balanceamento_10_11:  - Y <= 0
Balanceamento_10_12:  - Y <= 0
Balanceamento_10_13:  - Y + 2200 X(10,13) <= 0
Balanceamento_10_14:  - Y <= 0
Balanceamento_10_15:  - Y + 1000 X(10,15) <= 0
Balanceamento_10_16:  - Y + 100 X(10,16) <= 0
Balanceamento_10_17:  - Y <= 0
Balanceamento_11_0:  - Y <= 0
Balanceamento_11_1:  - Y <= 0
Balanceamento_11_2:  - Y <= 0
Balanceamento_11_3:  - Y <= 0
Balanceamento_11_4:  - Y <= 0
Balanceamento_11_5:  - Y <= 0
Balanceamento_11_6:  - Y <= 0
Balanceamento_11_7:  - Y <= 0
Balanceamento_11_8:  - Y <= 0
Balanceamento_11_9:  - Y <= 0
Balanceamento_11_10:  - Y <= 0
Balanceamento_11_11:  - Y <= 0
Balanceamento_11_12:  - Y + 300 X(11,12) <= 0
Balanceamento_11_13:  - Y + 3700 X(11,13) <= 0
Balanceamento_11_14:  - Y + 200 X(11,14) <= 0
Balanceamento_11_15:  - Y + 2500 X(11,15) <= 0
Balanceamento_11_16:  - Y + 1600 X(11,16) <= 0
Balanceamento_11_17:  - Y + 1200 X(11,17) <= 0
Balanceamento_12_0:  - Y <= 0
Balanceamento_12_1:  - Y <= 0
Balanceamento_12_2:  - Y <= 0
Balanceamento_12_3:  - Y <= 0
Balanceamento_12_4:  - Y <= 0
Balanceamento_12_5:  - Y <= 0
Balanceamento_12_6:  - Y <= 0
Balanceamento_12_7:  - Y <= 0
Balanceamento_12_8:  - Y <= 0
Balanceamento_12_9:  - Y <= 0
Balanceamento_12_10:  - Y <= 0
Balanceamento_12_11:  - Y <= 0
Balanceamento_12_12:  - Y <= 0
Balanceamento_12_13:  - Y + 3400 X(12,13) <= 0
Balanceamento_12_14:  - Y <= 0
Balanceamento_12_15:  - Y + 2200 X(12,15) <= 0
Balanceamento_12_16:  - Y + 1300 X(12,16) <= 0
Balanceamento_12_17:  - Y + 900 X(12,17) <= 0
Balanceamento_13_0:  - Y <= 0
Balanceamento_13_1:  - Y <= 0
Balanceamento_13_2:  - Y <= 0
Balanceamento_13_3:  - Y <= 0
Balanceamento_13_4:  - Y <= 0
Balanceamento_13_5:  - Y <= 0
Balanceamento_13_6:  - Y <= 0
Balanceamento_13_7:  - Y <= 0
Balanceamento_13_8:  - Y <= 0
Balanceamento_13_9:  - Y <= 0
Balanceamento_13_10:  - Y <= 0
Balanceamento_13_11:  - Y <= 0
Balanceamento_13_12:  - Y <= 0
Balanceamento_13_13:  - Y <= 0
Balanceamento_13_14:  - Y <= 0
Balanceamento_13_15:  - Y <= 0
Balanceamento_13_16:  - Y <= 0
Balanceamento_13_17:  - Y <= 0
Balanceamento_14_0:  - Y <= 0
Balanceamento_14_1:  - Y <= 0
Balanceamento_14_2:  - Y <= 0
Balanceamento_14_3:  - Y <= 0
Balanceamento_14_4:  - Y <= 0
Balanceamento_14_5:  - Y <= 0
Balanceamento_14_6:  - Y <= 0
Balanceamento_14_7:  - Y <= 0
Balanceamento_14_8:  - Y <= 0
Balanceamento_14_9:  - Y <= 0
Balanceamento_14_10:  - Y <= 0
Balanceamento_14_11:  - Y <= 0
Balanceamento_14_12:  - Y <= 0
Balanceamento_14_13:  - Y <= 0
Balanceamento_14_14:  - Y <= 0
Balanceamento_14_15:  - Y + 2300 X(14,15) <= 0
Balanceamento_14_16:  - Y + 1400 X(14,16) <= 0
Balanceamento_14_17:  - Y + 1000 X(14,17) <= 0
Balanceamento_15_0:  - Y <= 0
Balanceamento_15_1:  - Y <= 0
Balanceamento_15_2:  - Y <= 0
Balanceamento_15_3:  - Y <= 0
Balanceamento_15_4:  - Y <= 0
Balanceamento_15_5:  - Y <= 0
Balanceamento_15_6:  - Y <= 0
Balanceamento_15_7:  - Y <= 0
Balanceamento_15_8:  - Y <= 0
Balanceamento_15_9:  - Y <= 0
Balanceamento_15_10:  - Y <= 0
Balanceamento_15_11:  - Y <= 0
Balanceamento_15_12:  - Y <= 0
Balanceamento_15_13:  - Y <= 0
Balanceamento_15_14:  - Y <= 0
Balanceamento_15_15:  - Y <= 0
Balanceamento_15_16:  - Y <= 0
Balanceamento_15_17:  - Y <= 0
Balanceamento_16_0:  - Y <= 0
Balanceamento_16_1:  - Y <= 0
Balanceamento_16_2:  - Y <= 0
Balanceamento_16_3:  - Y <= 0
Balanceamento_16_4:  - Y <= 0
Balanceamento_16_5:  - Y <= 0
Balanceamento_16_6:  - Y <= 0
Balanceamento_16_7:  - Y <= 0
Balanceamento_16_8:  - Y <= 0
Balanceamento_16_9:  - Y <= 0
Balanceamento_16_10:  - Y <= 0
Balanceamento_16_11:  - Y <= 0
Balanceamento_16_12:  - Y <= 0
Balanceamento_16_13:  - Y <= 0
Balanceamento_16_14:  - Y <= 0
Balanceamento_16_15:  - Y <= 0
Balanceamento_16_16:  - Y <= 0
Balanceamento_16_17:  - Y <= 0
Balanceamento_17_0:  - Y <= 0
Balanceamento_17_1:  - Y <= 0
Balanceamento_17_2:  - Y <= 0
Balanceamento_17_3:  - Y <= 0
Balanceamento_17_4:  - Y <= 0
Balanceamento_17_5:  - Y <= 0
Balanceamento_17_6:  - Y <= 0
Balanceamento_17_7:  - Y <= 0
Balanceamento_17_8:  - Y <= 0
Balanceamento_17_9:  - Y <= 0
Balanceamento_17_10:  - Y <= 0
Balanceamento_17_11:  - Y <= 0
Balanceamento_17_12:  - Y <= 0
Balanceamento_17_13:  - Y <= 0
Balanceamento_17_14:  - Y <= 0
Balanceamento_17_15:  - Y <= 0
Balanceamento_17_16:  - Y <= 0
Balanceamento_17_17:  - Y <= 0
Bounds
 0 <= Y <= 5000
 0 <= X(0,1) <= 1
 0 <= X(0,2) <= 1
 0 <= X(0,3) <= 1
 0 <= X(0,4) <= 1
 0 <= X(0,5) <= 1
 0 <= X(0,6) <= 1
 0 <= X(0,7) <= 1
 0 <= X(0,8) <= 1
 0 <= X(0,9) <= 1
 0 <= X(0,10) <= 1
 0 <= X(0,11) <= 1
 0 <= X(0,12) <= 1
 0 <= X(0,13) <= 1
 0 <= X(0,14) <= 1
 0 <= X(0,15) <= 1
 0 <= X(0,16) <= 1
 0 <= X(0,17) <= 1
 0 <= X(1,2) <= 1
 0 <= X(1,3) <= 1
 0 <= X(1,4) <= 1
 0 <= X(1,5) <= 1
 0 <= X(1,6) <= 1
 0 <= X(1,7) <= 1
 0 <= X(1,8) <= 1
 0 <= X(1,9) <= 1
 0 <= X(1,10) <= 1
 0 <= X(1,11) <= 1
 0 <= X(1,12) <= 1
 0 <= X(1,13) <= 1
 0 <= X(1,14) <= 1
 0 <= X(1,15) <= 1
 0 <= X(1,16) <= 1
 0 <= X(1,17) <= 1
 0 <= X(2,3) <= 1
 0 <= X(2,4) <= 1
 0 <= X(2,5) <= 1
 0 <= X(2,6) <= 1
 0 <= X(2,7) <= 1
 0 <= X(2,8) <= 1
 0 <= X(2,9) <= 1
 0 <= X(2,10) <= 1
 0 <= X(2,11) <= 1
 0 <= X(2,12) <= 1
 0 <= X(2,13) <= 1
 0 <= X(2,14) <= 1
 0 <= X(2,15) <= 1
 0 <= X(2,16) <= 1
 0 <= X(2,17) <= 1
 0 <= X(3,4) <= 1
 0 <= X(3,5) <= 1
 0 <= X(3,6) <= 1
 0 <= X(3,7) <= 1
 0 <= X(3,8) <= 1
 0 <= X(3,9) <= 1
 0 <= X(3,10) <= 1
 0 <= X(3,11) <= 1
 0 <= X(3,12) <= 1
 0 <= X(3,13) <= 1
 0 <= X(3,14) <= 1
 0 <= X(3,15) <= 1
 0 <= X(3,16) <= 1
 0 <= X(3,17) <= 1
 0 <= X(4,5) <= 1
 0 <= X(4,6) <= 1
 0 <= X(4,7) <= 1
 0 <= X(4,8) <= 1
 0 <= X(4,9) <= 1
 0 <= X(4,10) <= 1
 0 <= X(4,11) <= 1
 0 <= X(4,12) <= 1
 0 <= X(4,13) <= 1
 0 <= X(4,14) <= 1
 0 <= X(4,15) <= 1
 0 <= X(4,16) <= 1
 0 <= X(4,17) <= 1
 0 <= X(5,6) <= 1
 0 <= X(5,7) <= 1
 0 <= X(5,8) <= 1
 0 <= X(5,9) <= 1
 0 <= X(5,10) <= 1
 0 <= X(5,11) <= 1
 0 <= X(5,12) <= 1
 0 <= X(5,13) <= 1
 0 <= X(5,14) <= 1
 0 <= X(5,15) <= 1
 0 <= X(5,16) <= 1
 0 <= X(5,17) <= 1
 0 <= X(6,7) <= 1
 0 <= X(6,8) <= 1
 0 <= X(6,9) <= 1
 0 <= X(6,10) <= 1
 0 <= X(6,11) <= 1
 0 <= X(6,12) <= 1
 0 <= X(6,13) <= 1
 0 <= X(6,14) <= 1
 0 <= X(6,15) <= 1
 0 <= X(6,16) <= 1
 0 <= X(6,17) <= 1
 0 <= X(7,8) <= 1
 0 <= X(7,9) <= 1
 0 <= X(7,10) <= 1
 0 <= X(7,11) <= 1
 0 <= X(7,12) <= 1
 0 <= X(7,13) <= 1
 0 <= X(7,14) <= 1
 0 <= X(7,15) <= 1
 0 <= X(7,16) <= 1
 0 <= X(7,17) <= 1
 0 <= X(8,9) <= 1
 0 <= X(8,10) <= 1
 0 <= X(8,11) <= 1
 0 <= X(8,12) <= 1
 0 <= X(8,13) <= 1
 0 <= X(8,14) <= 1
 0 <= X(8,15) <= 1
 0 <= X(8,16) <= 1
 0 <= X(8,17) <= 1
 0 <= X(9,10) <= 1
 0 <= X(9,11) <= 1
 0 <= X(9,12) <= 1
 0 <= X(9,13) <= 1
 0 <= X(9,14) <= 1
 0 <= X(9,15) <= 1
 0 <= X(9,16) <= 1
 0 <= X(9,17) <= 1
 0 <= X(10,11) <= 1
 0 <= X(10,12) <= 1
 0 <= X(10,13) <= 1
 0 <= X(10,14) <= 1
 0 <= X(10,15) <= 1
 0 <= X(10,16) <= 1
 0 <= X(10,17) <= 1
 0 <= X(11,12) <= 1
 0 <= X(11,13) <= 1
 0 <= X(11,14) <= 1
 0 <= X(11,15) <= 1
 0 <= X(11,16) <= 1
 0 <= X(11,17) <= 1
 0 <= X(12,13) <= 1
 0 <= X(12,14) <= 1
 0 <= X(12,15) <= 1
 0 <= X(12,16) <= 1
 0 <= X(12,17) <= 1
 0 <= X(13,14) <= 1
 0 <= X(13,15) <= 1
 0 <= X(13,16) <= 1
 0 <= X(13,17) <= 1
 0 <= X(14,15) <= 1
 0 <= X(14,16) <= 1
 0 <= X(14,17) <= 1
 0 <= X(15,16) <= 1
 0 <= X(15,17) <= 1
 0 <= X(16,17) <= 1
Integers
X(0,1) X(0,2) X(0,3) X(0,4) X(0,5) X(0,6) X(0,7) X(0,8) X(0,9) X(0,10) 
X(0,11) X(0,12) X(0,13) X(0,14) X(0,15) X(0,16) X(0,17) X(1,2) X(1,3) X(1,4) 
X(1,5) X(1,6) X(1,7) X(1,8) X(1,9) X(1,10) X(1,11) X(1,12) X(1,13) X(1,14) 
X(1,15) X(1,16) X(1,17) X(2,3) X(2,4) X(2,5) X(2,6) X(2,7) X(2,8) X(2,9) 
X(2,10) X(2,11) X(2,12) X(2,13) X(2,14) X(2,15) X(2,16) X(2,17) X(3,4) X(3,5) 
X(3,6) X(3,7) X(3,8) X(3,9) X(3,10) X(3,11) X(3,12) X(3,13) X(3,14) X(3,15) 
X(3,16) X(3,17) X(4,5) X(4,6) X(4,7) X(4,8) X(4,9) X(4,10) X(4,11) X(4,12) 
X(4,13) X(4,14) X(4,15) X(4,16) X(4,17) X(5,6) X(5,7) X(5,8) X(5,9) X(5,10) 
X(5,11) X(5,12) X(5,13) X(5,14) X(5,15) X(5,16) X(5,17) X(6,7) X(6,8) X(6,9) 
X(6,10) X(6,11) X(6,12) X(6,13) X(6,14) X(6,15) X(6,16) X(6,17) X(7,8) X(7,9) 
X(7,10) X(7,11) X(7,12) X(7,13) X(7,14) X(7,15) X(7,16) X(7,17) X(8,9) X(8,10) 
X(8,11) X(8,12) X(8,13) X(8,14) X(8,15) X(8,16) X(8,17) X(9,10) X(9,11) X(9,12) 
X(9,13) X(9,14) X(9,15) X(9,16) X(9,17) X(10,11) X(10,12) X(10,13) X(10,14) X(10,15) 
X(10,16) X(10,17) X(11,12) X(11,13) X(11,14) X(11,15) X(11,16) X(11,17) X(12,13) X(12,14) 
X(12,15) X(12,16) X(12,17) X(13,14) X(13,15) X(13,16) X(13,17) X(14,15) X(14,16) X(14,17) 
X(15,16) X(15,17) X(16,17) 
End
